30 5
80 32 74 31 94 86 96 46 81 28 20 69 14 82 34 36 20 40 20 18 55 46 84 84 57 40 22 96 99 67
50 74 35 23 14 23 91 98 25 84 89 89 48 27 63 80 38 11 29 67 19 40 11 51 47 97 96 10 95 18
89 43 80 45 87 57 64 60 63 49 61 28 73 43 54 85 89 22 76 21 40 64 96 52 99 100 71 96 89 93
66 98 11 24 33 71 87 65 41 94 19 12 67 33 44 25 63 12 100 82 72 69 65 66 71 11 63 60 67 77
75 97 96 35 87 78 32 79 68 14 74 21 31 71 53 82 67 48 93 44 86 95 12 73 71 66 76 56 64 64
